# Objective value = 6.0603799999999992e+03
I_0_0 2390
I_0_1 3297
I_0_2 2890
I_0_3 3047
I_0_4 2613
I_0_5 2762
I_0_6 3669
I_1_0 196
I_1_1 98
I_1_2 196
I_1_3 9.8000000000000014e+01
I_1_4 196
I_1_5 98
I_1_6 0
I_2_0 130
I_2_1 65
I_2_2 -2.8421709430404007e-14
I_2_3 1.2999999999999997e+02
I_2_4 130
I_2_5 6.5000000000000014e+01
I_2_6 3.0198066269804258e-14
I_3_0 94
I_3_1 4.7000000000000014e+01
I_3_2 9.3999999999999972e+01
I_3_3 4.6999999999999972e+01
I_3_4 9.3999999999999972e+01
I_3_5 47
I_3_6 7.1054273576010019e-15
I_4_0 55
I_4_1 0
I_4_2 55
I_4_3 0
I_4_4 55
I_4_5 55
I_4_6 0
I_5_0 114
I_5_1 57
I_5_2 1.1399999999999999e+02
I_5_3 57
I_5_4 114
I_5_5 57
I_5_6 0
I_6_0 78
I_6_1 0
I_6_2 78
I_6_3 0
I_6_4 78
I_6_5 78
I_6_6 0
I_7_0 22
I_7_1 1.0999999999999998e+01
I_7_2 2.2000000000000007e+01
I_7_3 11
I_7_4 22
I_7_5 1.1000000000000002e+01
I_7_6 1.7763568394002505e-15
I_8_0 30
I_8_1 0
I_8_2 30
I_8_3 0
I_8_4 30
I_8_5 30
I_8_6 0
I_9_0 188
I_9_1 9.4000000000000071e+01
I_9_2 188
I_9_3 94
I_9_4 188
I_9_5 94
I_9_6 7.1054273576010019e-15
I_10_0 190
I_10_1 9.4999999999999858e+01
I_10_2 5.6843418860808015e-14
I_10_3 190
I_10_4 95
I_10_5 190
I_10_6 9.4999999999999929e+01
I_11_0 38
I_11_1 0
I_11_2 38
I_11_3 0
I_11_4 38
I_11_5 38
I_11_6 0
I_12_0 86
I_12_1 0
I_12_2 86
I_12_3 0
I_12_4 86
I_12_5 8.5999999999999986e+01
I_12_6 1.9095836023552692e-14
I_13_0 38
I_13_1 1.9000000000000004e+01
I_13_2 3.7999999999999986e+01
I_13_3 19
I_13_4 3.5527136788005009e-15
I_13_5 38
I_13_6 1.8999999999999982e+01
I_14_0 44
I_14_1 0
I_14_2 44
I_14_3 -3.9079850466805510e-14
I_14_4 4.4000000000000043e+01
I_14_5 4.3999999999999993e+01
I_14_6 4.8849813083506888e-15
I_15_0 180
I_15_1 90
I_15_2 5.6843418860808015e-14
I_15_3 1.8000000000000006e+02
I_15_4 9.0000000000000028e+01
I_15_5 1.7999999999999994e+02
I_15_6 8.9999999999999943e+01
q_1_0 0
q_1_1 196
q_1_2 0
q_1_3 196
q_1_4 0
q_1_5 0
q_2_0 0
q_2_1 0
q_2_2 195
q_2_3 6.4999999999999972e+01
q_2_4 7.1054273576010019e-14
q_2_5 1.4210854715202004e-14
q_3_0 1.5654144647214707e-14
q_3_1 9.3999999999999972e+01
q_3_2 0
q_3_3 94
q_3_4 2.8421709430404007e-14
q_3_5 0
q_4_0 0
q_4_1 110
q_4_2 0
q_4_3 110
q_4_4 55
q_4_5 0
q_5_0 0
q_5_1 114
q_5_2 1.7763568394002505e-14
q_5_3 1.1399999999999999e+02
q_5_4 0
q_5_5 0
q_6_0 0
q_6_1 156
q_6_2 0
q_6_3 156
q_6_4 78
q_6_5 0
q_7_0 -1.5265566588595902e-15
q_7_1 2.2000000000000007e+01
q_7_2 -7.1054273576010019e-15
q_7_3 22
q_7_4 1.7763568394002505e-15
q_7_5 0
q_8_0 0
q_8_1 60
q_8_2 0
q_8_3 60
q_8_4 30
q_8_5 0
q_9_0 6.7834626804597065e-14
q_9_1 1.8799999999999991e+02
q_9_2 0
q_9_3 188
q_9_4 1.4210854715202004e-14
q_9_5 0
q_10_0 -1.4765966227514582e-13
q_10_1 2.2737367544323206e-13
q_10_2 2.8499999999999994e+02
q_10_3 0
q_10_4 190
q_10_5 0
q_11_0 0
q_11_1 76
q_11_2 0
q_11_3 76
q_11_4 38
q_11_5 0
q_12_0 0
q_12_1 172
q_12_2 0
q_12_3 172
q_12_4 8.5999999999999986e+01
q_12_5 3.3306690738754696e-14
q_13_0 3.1641356201816961e-15
q_13_1 3.7999999999999986e+01
q_13_2 1.4210854715202004e-14
q_13_3 0
q_13_4 5.6999999999999993e+01
q_13_5 0
q_14_0 0
q_14_1 88
q_14_2 -3.9079850466805510e-14
q_14_3 8.8000000000000085e+01
q_14_4 4.3999999999999950e+01
q_14_5 1.1990408665951691e-14
q_15_0 0
q_15_1 1.4210854715202004e-14
q_15_2 270
q_15_3 0
q_15_4 1.7999999999999991e+02
q_15_5 0
y_0_0 0
y_0_1 1
y_0_2 1
y_0_3 1
y_0_4 1
y_0_5 0
y_1_0 0
y_1_1 1
y_1_2 0
y_1_3 1
y_1_4 0
y_1_5 0
y_2_0 0
y_2_1 0
y_2_2 1
y_2_3 1
y_2_4 5.5511151231257827e-16
y_2_5 5.5511151231257827e-17
y_3_0 3.3306690738754696e-16
y_3_1 9.9999999999999956e-01
y_3_2 0
y_3_3 1
y_3_4 1.1102230246251565e-16
y_3_5 0
y_4_0 0
y_4_1 1
y_4_2 0
y_4_3 1
y_4_4 1
y_4_5 0
y_5_0 0
y_5_1 1
y_5_2 1.1102230246251565e-16
y_5_3 1
y_5_4 0
y_5_5 0
y_6_0 0
y_6_1 1
y_6_2 0
y_6_3 1
y_6_4 1
y_6_5 0
y_7_0 -1.3877787807814457e-16
y_7_1 1
y_7_2 0
y_7_3 1
y_7_4 5.5511151231257827e-17
y_7_5 0
y_8_0 0
y_8_1 1
y_8_2 0
y_8_3 1
y_8_4 1
y_8_5 0
y_9_0 7.2164496600635175e-16
y_9_1 1
y_9_2 0
y_9_3 1
y_9_4 5.5511151231257827e-17
y_9_5 0
y_10_0 -1.5543122344752192e-15
y_10_1 1.3045120539345589e-15
y_10_2 1
y_10_3 0
y_10_4 1
y_10_5 5.5511151231257827e-17
y_11_0 0
y_11_1 1
y_11_2 0
y_11_3 1
y_11_4 1
y_11_5 0
y_12_0 0
y_12_1 1
y_12_2 0
y_12_3 1
y_12_4 9.9999999999999978e-01
y_12_5 2.2204460492503131e-16
y_13_0 1.6653345369377348e-16
y_13_1 9.9999999999999978e-01
y_13_2 0
y_13_3 0
y_13_4 1
y_13_5 0
y_14_0 0
y_14_1 1
y_14_2 -8.8817841970012523e-16
y_14_3 1.0000000000000009e+00
y_14_4 9.9999999999999989e-01
y_14_5 1.1102230246251565e-16
y_15_0 0
y_15_1 5.5511151231257827e-17
y_15_2 1
y_15_3 0
y_15_4 9.9999999999999956e-01
y_15_5 0
x_0_1_0 0
x_0_1_1 0
x_0_1_2 0
x_0_1_3 0
x_0_1_4 0
x_0_1_5 0
x_0_2_0 1.5543122344752192e-15
x_0_2_1 0
x_0_2_2 1.0000000000000002e+00
x_0_2_3 9.9999999999999956e-01
x_0_2_4 8.8817841970012523e-16
x_0_2_5 0
x_0_3_0 0
x_0_3_1 0
x_0_3_2 0
x_0_3_3 0
x_0_3_4 0
x_0_3_5 0
x_0_4_0 0
x_0_4_1 0
x_0_4_2 0
x_0_4_3 0
x_0_4_4 0
x_0_4_5 0
x_0_5_0 0
x_0_5_1 0
x_0_5_2 0
x_0_5_3 0
x_0_5_4 0
x_0_5_5 0
x_0_6_0 0
x_0_6_1 0
x_0_6_2 0
x_0_6_3 0
x_0_6_4 0
x_0_6_5 0
x_0_7_0 0
x_0_7_1 0
x_0_7_2 0
x_0_7_3 0
x_0_7_4 0
x_0_7_5 0
x_0_8_0 0
x_0_8_1 9.9999999999999889e-01
x_0_8_2 0
x_0_8_3 1
x_0_8_4 0
x_0_8_5 0
x_0_9_0 0
x_0_9_1 0
x_0_9_2 0
x_0_9_3 0
x_0_9_4 0
x_0_9_5 0
x_0_10_0 -1.5543122344752192e-15
x_0_10_1 1.5265566588595902e-15
x_0_10_2 1
x_0_10_3 0
x_0_10_4 1.0000000000000002e+00
x_0_10_5 0
x_0_11_0 0
x_0_11_1 0
x_0_11_2 0
x_0_11_3 0
x_0_11_4 0
x_0_11_5 0
x_0_12_0 0
x_0_12_1 0
x_0_12_2 0
x_0_12_3 0
x_0_12_4 0
x_0_12_5 0
x_0_13_0 0
x_0_13_1 0
x_0_13_2 0
x_0_13_3 0
x_0_13_4 0
x_0_13_5 0
x_0_14_0 0
x_0_14_1 1
x_0_14_2 0
x_0_14_3 6.6613381477509392e-16
x_0_14_4 9.9999999999999867e-01
x_0_14_5 0
x_0_15_0 0
x_0_15_1 0
x_0_15_2 -2.2204460492503131e-16
x_0_15_3 -5.5511151231257827e-17
x_0_15_4 0
x_0_15_5 0
x_1_2_0 0
x_1_2_1 0
x_1_2_2 0
x_1_2_3 0
x_1_2_4 0
x_1_2_5 0
x_1_3_0 2.2204460492503131e-16
x_1_3_1 9.9999999999999956e-01
x_1_3_2 0
x_1_3_3 1
x_1_3_4 0
x_1_3_5 0
x_1_4_0 0
x_1_4_1 0
x_1_4_2 0
x_1_4_3 0
x_1_4_4 0
x_1_4_5 0
x_1_5_0 0
x_1_5_1 0
x_1_5_2 0
x_1_5_3 0
x_1_5_4 0
x_1_5_5 0
x_1_6_0 0
x_1_6_1 0
x_1_6_2 0
x_1_6_3 0
x_1_6_4 0
x_1_6_5 0
x_1_7_0 0
x_1_7_1 0
x_1_7_2 0
x_1_7_3 0
x_1_7_4 0
x_1_7_5 0
x_1_8_0 0
x_1_8_1 0
x_1_8_2 0
x_1_8_3 0
x_1_8_4 0
x_1_8_5 0
x_1_9_0 -2.2204460492503131e-16
x_1_9_1 3.3306690738754696e-16
x_1_9_2 0
x_1_9_3 0
x_1_9_4 0
x_1_9_5 0
x_1_10_0 0
x_1_10_1 0
x_1_10_2 0
x_1_10_3 0
x_1_10_4 0
x_1_10_5 0
x_1_11_0 0
x_1_11_1 1
x_1_11_2 0
x_1_11_3 1
x_1_11_4 0
x_1_11_5 0
x_1_12_0 0
x_1_12_1 0
x_1_12_2 0
x_1_12_3 0
x_1_12_4 0
x_1_12_5 0
x_1_13_0 0
x_1_13_1 0
x_1_13_2 0
x_1_13_3 0
x_1_13_4 0
x_1_13_5 0
x_1_14_0 0
x_1_14_1 0
x_1_14_2 0
x_1_14_3 0
x_1_14_4 0
x_1_14_5 0
x_1_15_0 0
x_1_15_1 0
x_1_15_2 0
x_1_15_3 0
x_1_15_4 0
x_1_15_5 0
x_2_3_0 0
x_2_3_1 0
x_2_3_2 0
x_2_3_3 0
x_2_3_4 0
x_2_3_5 0
x_2_4_0 0
x_2_4_1 0
x_2_4_2 0
x_2_4_3 0
x_2_4_4 0
x_2_4_5 0
x_2_5_0 0
x_2_5_1 0
x_2_5_2 0
x_2_5_3 0
x_2_5_4 0
x_2_5_5 0
x_2_6_0 0
x_2_6_1 0
x_2_6_2 0
x_2_6_3 0
x_2_6_4 0
x_2_6_5 0
x_2_7_0 0
x_2_7_1 0
x_2_7_2 0
x_2_7_3 0
x_2_7_4 0
x_2_7_5 0
x_2_8_0 0
x_2_8_1 0
x_2_8_2 0
x_2_8_3 0
x_2_8_4 0
x_2_8_5 0
x_2_9_0 0
x_2_9_1 0
x_2_9_2 0
x_2_9_3 0
x_2_9_4 0
x_2_9_5 0
x_2_10_0 0
x_2_10_1 0
x_2_10_2 0
x_2_10_3 0
x_2_10_4 0
x_2_10_5 0
x_2_11_0 0
x_2_11_1 0
x_2_11_2 0
x_2_11_3 0
x_2_11_4 0
x_2_11_5 0
x_2_12_0 0
x_2_12_1 0
x_2_12_2 4.4408920985006262e-16
x_2_12_3 -8.8817841970012523e-16
x_2_12_4 -1.1102230246251565e-16
x_2_12_5 0
x_2_13_0 0
x_2_13_1 0
x_2_13_2 0
x_2_13_3 0
x_2_13_4 0
x_2_13_5 0
x_2_14_0 -1.4432899320127035e-15
x_2_14_1 0
x_2_14_2 0
x_2_14_3 1.0000000000000004e+00
x_2_14_4 5.5511151231257827e-16
x_2_14_5 0
x_2_15_0 0
x_2_15_1 0
x_2_15_2 1
x_2_15_3 0
x_2_15_4 0
x_2_15_5 0
x_3_4_0 0
x_3_4_1 0
x_3_4_2 0
x_3_4_3 0
x_3_4_4 0
x_3_4_5 0
x_3_5_0 0
x_3_5_1 0
x_3_5_2 0
x_3_5_3 0
x_3_5_4 0
x_3_5_5 0
x_3_6_0 0
x_3_6_1 0
x_3_6_2 0
x_3_6_3 0
x_3_6_4 0
x_3_6_5 0
x_3_7_0 -1.2212453270876722e-15
x_3_7_1 0
x_3_7_2 8.8817841970012523e-16
x_3_7_3 0
x_3_7_4 0
x_3_7_5 0
x_3_8_0 0
x_3_8_1 0
x_3_8_2 0
x_3_8_3 0
x_3_8_4 0
x_3_8_5 0
x_3_9_0 1.7763568394002505e-15
x_3_9_1 9.9999999999999956e-01
x_3_9_2 0
x_3_9_3 9.9999999999999956e-01
x_3_9_4 1.1102230246251565e-16
x_3_9_5 1.1102230246251565e-16
x_3_10_0 0
x_3_10_1 0
x_3_10_2 0
x_3_10_3 0
x_3_10_4 0
x_3_10_5 0
x_3_11_0 0
x_3_11_1 0
x_3_11_2 0
x_3_11_3 0
x_3_11_4 1.1102230246251565e-16
x_3_11_5 -2.2204460492503131e-16
x_3_12_0 0
x_3_12_1 0
x_3_12_2 0
x_3_12_3 0
x_3_12_4 0
x_3_12_5 0
x_3_13_0 0
x_3_13_1 0
x_3_13_2 -8.8817841970012523e-16
x_3_13_3 0
x_3_13_4 0
x_3_13_5 0
x_3_14_0 0
x_3_14_1 0
x_3_14_2 0
x_3_14_3 0
x_3_14_4 0
x_3_14_5 0
x_3_15_0 0
x_3_15_1 0
x_3_15_2 0
x_3_15_3 0
x_3_15_4 0
x_3_15_5 0
x_4_5_0 0
x_4_5_1 0
x_4_5_2 0
x_4_5_3 0
x_4_5_4 0
x_4_5_5 0
x_4_6_0 0
x_4_6_1 1
x_4_6_2 0
x_4_6_3 1
x_4_6_4 1
x_4_6_5 0
x_4_7_0 0
x_4_7_1 0
x_4_7_2 0
x_4_7_3 0
x_4_7_4 0
x_4_7_5 0
x_4_8_0 0
x_4_8_1 0
x_4_8_2 0
x_4_8_3 0
x_4_8_4 0
x_4_8_5 0
x_4_9_0 0
x_4_9_1 0
x_4_9_2 0
x_4_9_3 0
x_4_9_4 0
x_4_9_5 0
x_4_10_0 0
x_4_10_1 0
x_4_10_2 0
x_4_10_3 0
x_4_10_4 0
x_4_10_5 0
x_4_11_0 0
x_4_11_1 0
x_4_11_2 0
x_4_11_3 1
x_4_11_4 1.0000000000000004e+00
x_4_11_5 0
x_4_12_0 0
x_4_12_1 0
x_4_12_2 0
x_4_12_3 0
x_4_12_4 0
x_4_12_5 0
x_4_13_0 0
x_4_13_1 9.9999999999999978e-01
x_4_13_2 0
x_4_13_3 0
x_4_13_4 0
x_4_13_5 0
x_4_14_0 0
x_4_14_1 0
x_4_14_2 0
x_4_14_3 0
x_4_14_4 0
x_4_14_5 0
x_4_15_0 0
x_4_15_1 0
x_4_15_2 0
x_4_15_3 0
x_4_15_4 0
x_4_15_5 0
x_5_6_0 0
x_5_6_1 0
x_5_6_2 0
x_5_6_3 0
x_5_6_4 0
x_5_6_5 0
x_5_7_0 0
x_5_7_1 1
x_5_7_2 0
x_5_7_3 1
x_5_7_4 0
x_5_7_5 0
x_5_8_0 0
x_5_8_1 0
x_5_8_2 0
x_5_8_3 0
x_5_8_4 0
x_5_8_5 0
x_5_9_0 0
x_5_9_1 0
x_5_9_2 0
x_5_9_3 0
x_5_9_4 0
x_5_9_5 0
x_5_10_0 0
x_5_10_1 0
x_5_10_2 0
x_5_10_3 0
x_5_10_4 0
x_5_10_5 0
x_5_11_0 0
x_5_11_1 0
x_5_11_2 0
x_5_11_3 0
x_5_11_4 0
x_5_11_5 0
x_5_12_0 0
x_5_12_1 1
x_5_12_2 2.2204460492503131e-16
x_5_12_3 1.0000000000000002e+00
x_5_12_4 0
x_5_12_5 0
x_5_13_0 0
x_5_13_1 0
x_5_13_2 0
x_5_13_3 0
x_5_13_4 0
x_5_13_5 0
x_5_14_0 0
x_5_14_1 0
x_5_14_2 0
x_5_14_3 0
x_5_14_4 0
x_5_14_5 0
x_5_15_0 0
x_5_15_1 0
x_5_15_2 0
x_5_15_3 0
x_5_15_4 0
x_5_15_5 0
x_6_7_0 0
x_6_7_1 0
x_6_7_2 0
x_6_7_3 0
x_6_7_4 0
x_6_7_5 0
x_6_8_0 0
x_6_8_1 1
x_6_8_2 0
x_6_8_3 1
x_6_8_4 1
x_6_8_5 0
x_6_9_0 0
x_6_9_1 0
x_6_9_2 0
x_6_9_3 0
x_6_9_4 0
x_6_9_5 0
x_6_10_0 0
x_6_10_1 0
x_6_10_2 0
x_6_10_3 0
x_6_10_4 0
x_6_10_5 0
x_6_11_0 0
x_6_11_1 0
x_6_11_2 0
x_6_11_3 0
x_6_11_4 0
x_6_11_5 0
x_6_12_0 0
x_6_12_1 0
x_6_12_2 0
x_6_12_3 0
x_6_12_4 0
x_6_12_5 0
x_6_13_0 0
x_6_13_1 0
x_6_13_2 0
x_6_13_3 0
x_6_13_4 0
x_6_13_5 0
x_6_14_0 0
x_6_14_1 0
x_6_14_2 0
x_6_14_3 0
x_6_14_4 0
x_6_14_5 0
x_6_15_0 0
x_6_15_1 0
x_6_15_2 0
x_6_15_3 0
x_6_15_4 0
x_6_15_5 0
x_7_8_0 0
x_7_8_1 0
x_7_8_2 0
x_7_8_3 0
x_7_8_4 0
x_7_8_5 0
x_7_9_0 -5.5511151231257827e-17
x_7_9_1 1
x_7_9_2 0
x_7_9_3 1
x_7_9_4 5.5511151231257827e-17
x_7_9_5 -1.1102230246251565e-16
x_7_10_0 0
x_7_10_1 0
x_7_10_2 0
x_7_10_3 0
x_7_10_4 0
x_7_10_5 0
x_7_11_0 0
x_7_11_1 0
x_7_11_2 0
x_7_11_3 0
x_7_11_4 5.5511151231257827e-17
x_7_11_5 0
x_7_12_0 0
x_7_12_1 0
x_7_12_2 -9.71445146547012e-16
x_7_12_3 5.5511151231257827e-17
x_7_12_4 0
x_7_12_5 2.2204460492503131e-16
x_7_13_0 0
x_7_13_1 0
x_7_13_2 0
x_7_13_3 0
x_7_13_4 0
x_7_13_5 0
x_7_14_0 0
x_7_14_1 0
x_7_14_2 0
x_7_14_3 0
x_7_14_4 0
x_7_14_5 0
x_7_15_0 0
x_7_15_1 0
x_7_15_2 0
x_7_15_3 0
x_7_15_4 0
x_7_15_5 0
x_8_9_0 0
x_8_9_1 0
x_8_9_2 0
x_8_9_3 0
x_8_9_4 0
x_8_9_5 0
x_8_10_0 0
x_8_10_1 1.0824674490095276e-15
x_8_10_2 0
x_8_10_3 0
x_8_10_4 2.2204460492503131e-16
x_8_10_5 0
x_8_11_0 0
x_8_11_1 0
x_8_11_2 0
x_8_11_3 0
x_8_11_4 0
x_8_11_5 0
x_8_12_0 0
x_8_12_1 0
x_8_12_2 0
x_8_12_3 0
x_8_12_4 0
x_8_12_5 0
x_8_13_0 0
x_8_13_1 0
x_8_13_2 0
x_8_13_3 0
x_8_13_4 0
x_8_13_5 0
x_8_14_0 0
x_8_14_1 0
x_8_14_2 0
x_8_14_3 0
x_8_14_4 0
x_8_14_5 0
x_8_15_0 0
x_8_15_1 0
x_8_15_2 0
x_8_15_3 5.5511151231257827e-17
x_8_15_4 9.9999999999999933e-01
x_8_15_5 0
x_9_10_0 0
x_9_10_1 0
x_9_10_2 0
x_9_10_3 0
x_9_10_4 0
x_9_10_5 0
x_9_11_0 0
x_9_11_1 0
x_9_11_2 0
x_9_11_3 0
x_9_11_4 -2.2204460492503131e-16
x_9_11_5 2.2204460492503131e-16
x_9_12_0 0
x_9_12_1 0
x_9_12_2 0
x_9_12_3 0
x_9_12_4 0
x_9_12_5 0
x_9_13_0 0
x_9_13_1 0
x_9_13_2 0
x_9_13_3 0
x_9_13_4 1.1102230246251565e-16
x_9_13_5 -1.1102230246251565e-16
x_9_14_0 0
x_9_14_1 0
x_9_14_2 0
x_9_14_3 0
x_9_14_4 0
x_9_14_5 0
x_9_15_0 0
x_9_15_1 0
x_9_15_2 0
x_9_15_3 0
x_9_15_4 0
x_9_15_5 0
x_10_11_0 0
x_10_11_1 0
x_10_11_2 0
x_10_11_3 0
x_10_11_4 0
x_10_11_5 0
x_10_12_0 0
x_10_12_1 0
x_10_12_2 0
x_10_12_3 0
x_10_12_4 0
x_10_12_5 0
x_10_13_0 0
x_10_13_1 0
x_10_13_2 0
x_10_13_3 0
x_10_13_4 0
x_10_13_5 0
x_10_14_0 0
x_10_14_1 0
x_10_14_2 0
x_10_14_3 0
x_10_14_4 0
x_10_14_5 0
x_10_15_0 -1.5543122344752192e-15
x_10_15_1 0
x_10_15_2 1
x_10_15_3 0
x_10_15_4 9.9999999999999967e-01
x_10_15_5 1.1102230246251565e-16
x_11_12_0 0
x_11_12_1 0
x_11_12_2 0
x_11_12_3 0
x_11_12_4 0
x_11_12_5 0
x_11_13_0 0
x_11_13_1 9.9999999999999978e-01
x_11_13_2 0
x_11_13_3 0
x_11_13_4 1
x_11_13_5 0
x_11_14_0 0
x_11_14_1 0
x_11_14_2 0
x_11_14_3 0
x_11_14_4 0
x_11_14_5 0
x_11_15_0 0
x_11_15_1 0
x_11_15_2 0
x_11_15_3 0
x_11_15_4 0
x_11_15_5 0
x_12_13_0 0
x_12_13_1 0
x_12_13_2 0
x_12_13_3 0
x_12_13_4 1.0000000000000002e+00
x_12_13_5 1.1102230246251565e-16
x_12_14_0 0
x_12_14_1 1
x_12_14_2 6.6613381477509392e-16
x_12_14_3 1.0000000000000004e+00
x_12_14_4 9.9999999999999978e-01
x_12_14_5 2.2204460492503131e-16
x_12_15_0 0
x_12_15_1 0
x_12_15_2 0
x_12_15_3 0
x_12_15_4 0
x_12_15_5 -1.1102230246251565e-16
x_13_14_0 0
x_13_14_1 0
x_13_14_2 0
x_13_14_3 0
x_13_14_4 0
x_13_14_5 0
x_13_15_0 3.3306690738754696e-16
x_13_15_1 0
x_13_15_2 1.4155343563970746e-15
x_13_15_3 0
x_13_15_4 0
x_13_15_5 0
x_14_15_0 1.5543122344752192e-15
x_14_15_1 0
x_14_15_2 -1.5543122344752192e-15
x_14_15_3 0
x_14_15_4 2.2204460492503131e-16
x_14_15_5 0
